p tw 174 189
1 2
2 87
3 14
4 5
5 6
6 7
7 8
8 9
9 10
10 11
11 12
12 13
13 15
14 25
15 16
16 17
17 18
18 19
19 20
20 21
21 22
22 23
23 24
24 26
25 36
26 27
27 28
28 29
29 30
30 31
31 32
32 33
33 34
34 35
35 37
36 47
37 38
38 39
39 40
40 41
41 42
41 81
42 43
43 44
44 45
45 46
46 48
47 58
47 94
48 49
48 54
49 50
50 51
51 52
52 53
53 77
54 55
55 56
56 57
57 59
57 61
58 69
59 60
60 63
61 62
62 63
63 64
64 65
65 66
66 67
67 68
68 70
69 80
69 94
70 71
70 73
71 72
72 75
73 74
74 75
75 76
76 77
77 78
78 79
79 39
80 85
81 82
82 83
83 84
85 86
86 88
86 94
87 98
88 89
89 90
89 94
90 91
91 92
91 94
92 93
93 94
93 96
94 95
95 83
96 97
97 99
98 109
99 100
100 101
101 102
102 103
103 104
104 105
104 113
105 106
105 113
106 107
107 108
108 110
109 120
110 111
111 112
112 113
113 114
114 115
115 116
116 117
117 118
118 119
119 121
120 131
120 142
121 122
122 123
123 124
123 145
124 125
125 126
126 127
127 128
128 129
129 130
130 132
131 142
132 133
133 134
134 135
135 136
136 137
137 138
138 139
139 140
140 141
141 143
142 153
143 144
144 121
145 146
146 147
147 148
148 149
149 150
150 151
151 152
152 154
153 164
154 155
155 156
156 157
156 174
157 158
158 159
159 160
160 161
161 162
162 163
163 165
164 3
164 14
165 166
166 167
167 168
168 169
169 170
170 171
171 172
172 173
173 150
174 4
